<number of tasks>
50

<cycle time>
1000

<order strength>
0.197


<task times>
1 117
2 82
3 198
4 33
5 81
6 158
7 48
8 86
9 182
10 105
11 164
12 186
13 77
14 82
15 211
16 224
17 147
18 107
19 233
20 62
21 68
22 231
23 72
24 206
25 112
26 55
27 249
28 124
29 67
30 121
31 153
32 64
33 119
34 143
35 55
36 169
37 176
38 86
39 33
40 105
41 170
42 238
43 216
44 250
45 142
46 38
47 46
48 111
49 198
50 303

<precedence relations>
1,32
2,8
2,11
3,9
3,13
4,10
4,12
5,14
8,17
9,16
10,18
10,30
12,15
13,19
15,32
16,22
17,23
18,24
19,20
19,21
19,25
20,32
21,32
22,27
23,28
24,29
25,26
25,30
25,31
26,32
27,35
28,33
29,34
30,36
32,37
32,38
32,39
32,40
33,41
34,42
36,43
37,46
38,48
38,49
38,50
40,47
41,45
42,44

<end>
